;; produced by z3_gnatprove.drv ;;
(set-info :smt-lib-version 2.5)
(set-info :source |VC generated by SPARK 2014|)
(set-info :category industrial)
(set-info :status unknown)
;;; generated by SMT-LIB2 driver
;;; SMT-LIB2 driver: bit-vectors, common part
;;; SMT-LIB2: integer arithmetic
(declare-sort string 0)

(declare-datatypes () ((tuple0 (Tuple0))))
(declare-sort us_private 0)

(declare-fun private__bool_eq (us_private us_private) Bool)

(declare-const us_null_ext__ us_private)

(declare-sort us_type_of_heap 0)

(declare-datatypes ()
((us_type_of_heap__ref
 (us_type_of_heap__refqtmk (us_type_of_heap__content us_type_of_heap)))))
(declare-sort us_image 0)

(declare-datatypes () ((int__ref (int__refqtmk (int__content Int)))))
(declare-datatypes () ((bool__ref (bool__refqtmk (bool__content Bool)))))
(declare-datatypes ()
((us_fixed__ref (us_fixed__refqtmk (us_fixed__content Int)))))
(declare-datatypes () ((real__ref (real__refqtmk (real__content Real)))))
(declare-datatypes ()
((us_private__ref (us_private__refqtmk (us_private__content us_private)))))
(define-fun int__ref___projection ((a int__ref)) Int (int__content a))

(define-fun us_fixed__ref___projection ((a us_fixed__ref)) Int (us_fixed__content
                                                               a))

(define-fun bool__ref___projection ((a bool__ref)) Bool (bool__content a))

(define-fun real__ref___projection ((a real__ref)) Real (real__content a))

(define-fun us_private__ref___projection ((a us_private__ref)) us_private 
  (us_private__content a))

(declare-sort integer 0)

(declare-fun integerqtint (integer) Int)

;; integer'axiom
  (assert
  (forall ((i integer))
  (and (<= (- 2147483648) (integerqtint i)) (<= (integerqtint i) 2147483647))))

(define-fun in_range ((x Int)) Bool (and (<= (- 2147483648) x)
                                    (<= x 2147483647)))

(declare-fun attr__ATTRIBUTE_IMAGE (Int) us_image)

(declare-fun attr__ATTRIBUTE_VALUE__pre_check (us_image) Bool)

(declare-fun attr__ATTRIBUTE_VALUE (us_image) Int)

(declare-fun user_eq (integer integer) Bool)

(declare-const dummy integer)

(declare-datatypes ()
((integer__ref (integer__refqtmk (integer__content integer)))))
(define-fun integer__ref_integer__content__projection ((a integer__ref)) integer 
  (integer__content a))

(define-fun dynamic_invariant ((temp___expr_18 Int) (temp___is_init_14 Bool)
  (temp___skip_constant_15 Bool) (temp___do_toplevel_16 Bool)
  (temp___do_typ_inv_17 Bool)) Bool (=>
                                    (or (= temp___is_init_14 true)
                                    (<= (- 2147483648) 2147483647)) (in_range
                                    temp___expr_18)))

(declare-const v1v Int)

(declare-const attr__ATTRIBUTE_ADDRESS Int)

(declare-const v2v Int)

(declare-const attr__ATTRIBUTE_ADDRESS1 Int)

(declare-const v3v Int)

(declare-const attr__ATTRIBUTE_ADDRESS2 Int)

(declare-sort u8_t 0)

(declare-fun u8_tqtint (u8_t) Int)

;; u8_t'axiom
  (assert
  (forall ((i u8_t)) (and (<= 0 (u8_tqtint i)) (<= (u8_tqtint i) 255))))

(define-fun in_range1 ((x Int)) Bool (and (<= 0 x) (<= x 255)))

(declare-fun attr__ATTRIBUTE_IMAGE1 (Int) us_image)

(declare-fun attr__ATTRIBUTE_VALUE__pre_check1 (us_image) Bool)

(declare-fun attr__ATTRIBUTE_VALUE1 (us_image) Int)

(declare-fun user_eq1 (u8_t u8_t) Bool)

(declare-const dummy1 u8_t)

(declare-datatypes () ((u8_t__ref (u8_t__refqtmk (u8_t__content u8_t)))))
(define-fun u8_t__ref_u8_t__content__projection ((a u8_t__ref)) u8_t 
  (u8_t__content a))

(define-fun to_rep ((x u8_t)) Int (u8_tqtint x))

(declare-fun of_rep (Int) u8_t)

;; inversion_axiom
  (assert
  (forall ((x u8_t)) (! (= (of_rep (to_rep x)) x) :pattern ((to_rep x)) )))

;; range_axiom
  (assert
  (forall ((x u8_t)) (! (in_range1 (to_rep x)) :pattern ((to_rep x)) )))

;; coerce_axiom
  (assert
  (forall ((x Int))
  (! (=> (in_range1 x) (= (to_rep (of_rep x)) x)) :pattern ((to_rep
                                                            (of_rep x))) )))

(declare-datatypes ()
((map__ref (map__refqtmk (map__content (Array Int u8_t))))))
(declare-fun slide ((Array Int u8_t) Int Int) (Array Int u8_t))

;; slide_eq
  (assert
  (forall ((a (Array Int u8_t)))
  (forall ((first Int))
  (! (= (slide a first first) a) :pattern ((slide a first first)) ))))

;; slide_def
  (assert
  (forall ((a (Array Int u8_t)))
  (forall ((old_first Int))
  (forall ((new_first Int))
  (forall ((i Int))
  (! (= (select (slide a old_first new_first) i) (select a (- i (- new_first old_first)))) :pattern ((select 
  (slide a old_first new_first) i)) ))))))

(define-fun bool_eq ((a (Array Int u8_t)) (a__first Int) (a__last Int)
  (b (Array Int u8_t)) (b__first Int)
  (b__last Int)) Bool (ite (and
                           (ite (<= a__first a__last)
                           (and (<= b__first b__last)
                           (= (- a__last a__first) (- b__last b__first)))
                           (< b__last b__first))
                           (forall ((temp___idx_154 Int))
                           (=>
                           (and (<= a__first temp___idx_154)
                           (<= temp___idx_154 a__last))
                           (= (to_rep (select a temp___idx_154)) (to_rep
                                                                 (select b (+ (- b__first a__first) temp___idx_154)))))))
                      true false))

;; bool_eq_rev
  (assert
  (forall ((a (Array Int u8_t)) (b (Array Int u8_t)))
  (forall ((a__first Int) (a__last Int) (b__first Int) (b__last Int))
  (=> (= (bool_eq b b__first b__last a a__first a__last) true)
  (and
  (ite (<= a__first a__last)
  (and (<= b__first b__last) (= (- a__last a__first) (- b__last b__first)))
  (< b__last b__first))
  (forall ((temp___idx_154 Int))
  (=> (and (<= a__first temp___idx_154) (<= temp___idx_154 a__last))
  (= (to_rep (select a temp___idx_154)) (to_rep
                                        (select b (+ (- b__first a__first) temp___idx_154)))))))))))

(declare-const dummy2 (Array Int u8_t))

(declare-const value__size Int)

(declare-const object__size Int)

(declare-const component__size Int)

(declare-const alignment Int)

;; value__size_axiom
  (assert (<= 0 value__size))

;; object__size_axiom
  (assert (<= 0 object__size))

;; component__size_axiom
  (assert (<= 0 component__size))

;; alignment_axiom
  (assert (<= 0 alignment))

(declare-fun user_eq2 ((Array Int u8_t) (Array Int u8_t)) Bool)

(define-fun dynamic_invariant1 ((temp___expr_159 Int)
  (temp___is_init_155 Bool) (temp___skip_constant_156 Bool)
  (temp___do_toplevel_157 Bool)
  (temp___do_typ_inv_158 Bool)) Bool (=>
                                     (or (= temp___is_init_155 true)
                                     (<= 0 255)) (in_range1 temp___expr_159)))

;; v1v__def_axiom
  (assert (= v1v 1))

;; v2v__def_axiom
  (assert (= v2v 6))

;; v3v__def_axiom
  (assert (= v3v value__size))

;; Assume
  (assert (dynamic_invariant v1v true false true true))

;; Assume
  (assert (dynamic_invariant v2v true false true true))

(assert
;; defqtvc
 ;; File "unksize.ads", line 1, characters 0-0
  (not (in_range value__size)))
(check-sat)
